Maximize
  9.09224e-05 Z_389_0_0 + 0.00450167666234655 Z_389_0_1
   + 0.8629626503835696 Z_389_0_2 + 9.042883582435525e-04 Z_389_0_3
   + 0.0315404622240947 Z_389_0_4
Subject To
 constraint1_3890: Z_389_0_0 + Z_389_0_1 + Z_389_0_2 + Z_389_0_3
   + Z_389_0_4 <= 1
 constraint2_770: <= 1
 constraint2_771: <= 1
 constraint2_772: <= 1
 constraint2_773: <= 1
 constraint2_3890: Z_389_0_0 <= 1
 constraint2_3891: Z_389_0_1 <= 1
 constraint2_3892: Z_389_0_2 <= 1
 constraint2_3893: Z_389_0_3 <= 1
 constraint2_6600: <= 1
 constraint2_6601: <= 1
 constraint2_6602: <= 1
 constraint2_6603: <= 1
 constraint2_2600: <= 1
 constraint2_2601: <= 1
 constraint2_2602: <= 1
 constraint2_2603: <= 1
Bounds
Binaries
 Z_389_0_0 Z_389_0_1 Z_389_0_2 Z_389_0_3 Z_389_0_4
End
